p cnf 966 2481
51 -2 -1 0
-51 2 0
-51 1 0
52 -51 -3 0
-52 51 0
-52 3 0
53 -699 -4 0
-53 699 0
-53 4 0
54 -53 -700 0
-54 53 0
-54 700 0
55 -701 -702 0
-55 701 0
-55 702 0
56 -8 -7 0
-56 8 0
-56 7 0
57 -56 -9 0
-57 56 0
-57 9 0
58 -703 -55 0
-58 703 0
-58 55 0
59 -11 -704 0
-59 11 0
-59 704 0
60 -59 -12 0
-60 59 0
-60 12 0
61 -705 -58 0
-61 705 0
-61 58 0
62 -706 -707 0
-62 706 0
-62 707 0
63 -62 -14 0
-63 62 0
-63 14 0
64 -708 -61 0
-64 708 0
-64 61 0
65 -15 -2 0
-65 15 0
-65 2 0
66 -65 -16 0
-66 65 0
-66 16 0
67 -709 -64 0
-67 709 0
-67 64 0
68 -710 -711 0
-68 710 0
-68 711 0
69 -68 -712 0
-69 68 0
-69 712 0
70 -713 -67 0
-70 713 0
-70 67 0
71 -21 -20 0
-71 21 0
-71 20 0
72 -71 -714 0
-72 71 0
-72 714 0
73 -715 -70 0
-73 715 0
-73 70 0
74 -716 -717 0
-74 716 0
-74 717 0
75 -74 -718 0
-75 74 0
-75 718 0
76 -719 -73 0
-76 719 0
-76 73 0
77 -711 -714 0
-77 711 0
-77 714 0
78 -77 -720 0
-78 77 0
-78 720 0
79 -721 -76 0
-79 721 0
-79 76 0
80 -722 -723 0
-80 722 0
-80 723 0
81 -80 -724 0
-81 80 0
-81 724 0
82 -725 -79 0
-82 725 0
-82 79 0
83 -726 -704 0
-83 726 0
-83 704 0
84 -83 -6 0
-84 83 0
-84 6 0
85 -727 -82 0
-85 727 0
-85 82 0
86 -728 -729 0
-86 728 0
-86 729 0
87 -86 -730 0
-87 86 0
-87 730 0
88 -731 -85 0
-88 731 0
-88 85 0
89 -732 -728 0
-89 732 0
-89 728 0
90 -89 -28 0
-90 89 0
-90 28 0
91 -733 -88 0
-91 733 0
-91 88 0
92 -32 -20 0
-92 32 0
-92 20 0
93 -92 -33 0
-93 92 0
-93 33 0
94 -734 -91 0
-94 734 0
-94 91 0
95 -35 -735 0
-95 35 0
-95 735 0
96 -95 -20 0
-96 95 0
-96 20 0
97 -736 -94 0
-97 736 0
-97 94 0
98 -737 -31 0
-98 737 0
-98 31 0
99 -98 -738 0
-99 98 0
-99 738 0
100 -739 -97 0
-100 739 0
-100 97 0
101 -3 -2 0
-101 3 0
-101 2 0
102 -101 -726 0
-102 101 0
-102 726 0
103 -740 -100 0
-103 740 0
-103 100 0
104 -10 -9 0
-104 10 0
-104 9 0
105 -104 -24 0
-105 104 0
-105 24 0
106 -741 -103 0
-106 741 0
-106 103 0
107 -742 -37 0
-107 742 0
-107 37 0
108 -107 -699 0
-108 107 0
-108 699 0
109 -743 -106 0
-109 743 0
-109 106 0
110 -37 -723 0
-110 37 0
-110 723 0
111 -110 -39 0
-111 110 0
-111 39 0
112 -744 -109 0
-112 744 0
-112 109 0
113 -95 -5 0
-113 95 0
-113 5 0
114 -745 -112 0
-114 745 0
-114 112 0
115 -31 -726 0
-115 31 0
-115 726 0
116 -115 -699 0
-116 115 0
-116 699 0
117 -746 -114 0
-117 746 0
-117 114 0
118 -728 -16 0
-118 728 0
-118 16 0
119 -118 -747 0
-119 118 0
-119 747 0
120 -748 -117 0
-120 748 0
-120 117 0
121 -704 -8 0
-121 704 0
-121 8 0
122 -121 -747 0
-122 121 0
-122 747 0
123 -749 -120 0
-123 749 0
-123 120 0
124 -723 -16 0
-124 723 0
-124 16 0
125 -124 -750 0
-125 124 0
-125 750 0
126 -751 -123 0
-126 751 0
-126 123 0
127 -752 -706 0
-127 752 0
-127 706 0
128 -127 -40 0
-128 127 0
-128 40 0
129 -753 -126 0
-129 753 0
-129 126 0
130 -35 -754 0
-130 35 0
-130 754 0
131 -130 -33 0
-131 130 0
-131 33 0
132 -755 -129 0
-132 755 0
-132 129 0
133 -756 -29 0
-133 756 0
-133 29 0
134 -133 -757 0
-134 133 0
-134 757 0
135 -758 -132 0
-135 758 0
-135 132 0
136 -737 -707 0
-136 737 0
-136 707 0
137 -136 -3 0
-137 136 0
-137 3 0
138 -759 -135 0
-138 759 0
-138 135 0
139 -735 -14 0
-139 735 0
-139 14 0
140 -139 -760 0
-140 139 0
-140 760 0
141 -761 -138 0
-141 761 0
-141 138 0
142 -37 -762 0
-142 37 0
-142 762 0
143 -142 -5 0
-143 142 0
-143 5 0
144 -763 -141 0
-144 763 0
-144 141 0
145 -764 -728 0
-145 764 0
-145 728 0
146 -145 -18 0
-146 145 0
-146 18 0
147 -765 -144 0
-147 765 0
-147 144 0
148 -44 -738 0
-148 44 0
-148 738 0
149 -148 -716 0
-149 148 0
-149 716 0
150 -766 -147 0
-150 766 0
-150 147 0
151 -35 -762 0
-151 35 0
-151 762 0
152 -151 -45 0
-152 151 0
-152 45 0
153 -767 -150 0
-153 767 0
-153 150 0
154 -737 -712 0
-154 737 0
-154 712 0
155 -154 -768 0
-155 154 0
-155 768 0
156 -769 -153 0
-156 769 0
-156 153 0
157 -38 -15 0
-157 38 0
-157 15 0
158 -157 -19 0
-158 157 0
-158 19 0
159 -770 -156 0
-159 770 0
-159 156 0
160 -771 -757 0
-160 771 0
-160 757 0
161 -160 -43 0
-161 160 0
-161 43 0
162 -772 -159 0
-162 772 0
-162 159 0
163 -717 -754 0
-163 717 0
-163 754 0
164 -163 -722 0
-164 163 0
-164 722 0
165 -773 -162 0
-165 773 0
-165 162 0
166 -26 -15 0
-166 26 0
-166 15 0
167 -166 -7 0
-167 166 0
-167 7 0
168 -774 -165 0
-168 774 0
-168 165 0
169 -775 -726 0
-169 775 0
-169 726 0
170 -169 -18 0
-170 169 0
-170 18 0
171 -776 -168 0
-171 776 0
-171 168 0
172 -35 -16 0
-172 35 0
-172 16 0
173 -172 -6 0
-173 172 0
-173 6 0
174 -777 -171 0
-174 777 0
-174 171 0
175 -775 -14 0
-175 775 0
-175 14 0
176 -175 -750 0
-176 175 0
-176 750 0
177 -778 -174 0
-177 778 0
-177 174 0
178 -22 -13 0
-178 22 0
-178 13 0
179 -178 -760 0
-179 178 0
-179 760 0
180 -779 -177 0
-180 779 0
-180 177 0
181 -726 -15 0
-181 726 0
-181 15 0
182 -181 -747 0
-182 181 0
-182 747 0
183 -780 -180 0
-183 780 0
-183 180 0
184 -706 -1 0
-184 706 0
-184 1 0
185 -184 -4 0
-185 184 0
-185 4 0
186 -781 -183 0
-186 781 0
-186 183 0
187 -46 -738 0
-187 46 0
-187 738 0
188 -187 -24 0
-188 187 0
-188 24 0
189 -782 -186 0
-189 782 0
-189 186 0
190 -38 -783 0
-190 38 0
-190 783 0
191 -190 -43 0
-191 190 0
-191 43 0
192 -784 -189 0
-192 784 0
-192 189 0
193 -26 -747 0
-193 26 0
-193 747 0
194 -193 -12 0
-194 193 0
-194 12 0
195 -785 -192 0
-195 785 0
-195 192 0
196 -37 -786 0
-196 37 0
-196 786 0
197 -196 -716 0
-197 196 0
-197 716 0
198 -787 -195 0
-198 787 0
-198 195 0
199 -775 -5 0
-199 775 0
-199 5 0
200 -199 -30 0
-200 199 0
-200 30 0
201 -788 -198 0
-201 788 0
-201 198 0
202 -47 -732 0
-202 47 0
-202 732 0
203 -202 -728 0
-203 202 0
-203 728 0
204 -789 -201 0
-204 789 0
-204 201 0
205 -16 -699 0
-205 16 0
-205 699 0
206 -205 -700 0
-206 205 0
-206 700 0
207 -790 -204 0
-207 790 0
-207 204 0
208 -34 -754 0
-208 34 0
-208 754 0
209 -208 -729 0
-209 208 0
-209 729 0
210 -791 -207 0
-210 791 0
-210 207 0
211 -723 -712 0
-211 723 0
-211 712 0
212 -211 -12 0
-212 211 0
-212 12 0
213 -792 -210 0
-213 792 0
-213 210 0
214 -716 -783 0
-214 716 0
-214 783 0
215 -214 -5 0
-215 214 0
-215 5 0
216 -793 -213 0
-216 793 0
-216 213 0
217 -46 -775 0
-217 46 0
-217 775 0
218 -217 -3 0
-218 217 0
-218 3 0
219 -794 -216 0
-219 794 0
-219 216 0
220 -17 -783 0
-220 17 0
-220 783 0
221 -220 -14 0
-221 220 0
-221 14 0
222 -795 -219 0
-222 795 0
-222 219 0
223 -11 -707 0
-223 11 0
-223 707 0
224 -223 -19 0
-224 223 0
-224 19 0
225 -796 -222 0
-225 796 0
-225 222 0
226 -742 -1 0
-226 742 0
-226 1 0
227 -226 -714 0
-227 226 0
-227 714 0
228 -797 -225 0
-228 797 0
-228 225 0
229 -775 -31 0
-229 775 0
-229 31 0
230 -229 -7 0
-230 229 0
-230 7 0
231 -798 -228 0
-231 798 0
-231 228 0
232 -48 -724 0
-232 48 0
-232 724 0
233 -232 -756 0
-233 232 0
-233 756 0
234 -799 -231 0
-234 799 0
-234 231 0
235 -48 -800 0
-235 48 0
-235 800 0
236 -235 -6 0
-236 235 0
-236 6 0
237 -801 -234 0
-237 801 0
-237 234 0
238 -15 -724 0
-238 15 0
-238 724 0
239 -238 -720 0
-239 238 0
-239 720 0
240 -802 -237 0
-240 802 0
-240 237 0
241 -38 -7 0
-241 38 0
-241 7 0
242 -241 -42 0
-242 241 0
-242 42 0
243 -803 -240 0
-243 803 0
-243 240 0
244 -32 -11 0
-244 32 0
-244 11 0
245 -244 -45 0
-245 244 0
-245 45 0
246 -804 -243 0
-246 804 0
-246 243 0
247 -704 -7 0
-247 704 0
-247 7 0
248 -247 -49 0
-248 247 0
-248 49 0
249 -805 -246 0
-249 805 0
-249 246 0
250 -738 -711 0
-250 738 0
-250 711 0
251 -250 -699 0
-251 250 0
-251 699 0
252 -806 -249 0
-252 806 0
-252 249 0
253 -775 -737 0
-253 775 0
-253 737 0
254 -253 -760 0
-254 253 0
-254 760 0
255 -807 -252 0
-255 807 0
-255 252 0
256 -44 -32 0
-256 44 0
-256 32 0
257 -256 -800 0
-257 256 0
-257 800 0
258 -808 -255 0
-258 808 0
-258 255 0
259 -775 -723 0
-259 775 0
-259 723 0
260 -259 -18 0
-260 259 0
-260 18 0
261 -809 -258 0
-261 809 0
-261 258 0
262 -46 -20 0
-262 46 0
-262 20 0
263 -262 -810 0
-263 262 0
-263 810 0
264 -811 -261 0
-264 811 0
-264 261 0
265 -28 -707 0
-265 28 0
-265 707 0
266 -265 -40 0
-266 265 0
-266 40 0
267 -812 -264 0
-267 812 0
-267 264 0
268 -771 -707 0
-268 771 0
-268 707 0
269 -268 -700 0
-269 268 0
-269 700 0
270 -813 -267 0
-270 813 0
-270 267 0
271 -29 -738 0
-271 29 0
-271 738 0
272 -271 -9 0
-272 271 0
-272 9 0
273 -814 -270 0
-273 814 0
-273 270 0
274 -810 -7 0
-274 810 0
-274 7 0
275 -274 -700 0
-275 274 0
-275 700 0
276 -815 -273 0
-276 815 0
-276 273 0
277 -724 -3 0
-277 724 0
-277 3 0
278 -277 -699 0
-278 277 0
-278 699 0
279 -816 -276 0
-279 816 0
-279 276 0
280 -48 -47 0
-280 48 0
-280 47 0
281 -280 -43 0
-281 280 0
-281 43 0
282 -817 -279 0
-282 817 0
-282 279 0
283 -8 -800 0
-283 8 0
-283 800 0
284 -283 -45 0
-284 283 0
-284 45 0
285 -818 -282 0
-285 818 0
-285 282 0
286 -45 -732 0
-286 45 0
-286 732 0
287 -286 -757 0
-287 286 0
-287 757 0
288 -819 -285 0
-288 819 0
-288 285 0
289 -771 -13 0
-289 771 0
-289 13 0
290 -289 -714 0
-290 289 0
-290 714 0
291 -820 -288 0
-291 820 0
-291 288 0
292 -38 -28 0
-292 38 0
-292 28 0
293 -292 -48 0
-293 292 0
-293 48 0
294 -821 -291 0
-294 821 0
-294 291 0
295 -822 -4 0
-295 822 0
-295 4 0
296 -295 -30 0
-296 295 0
-296 30 0
297 -823 -294 0
-297 823 0
-297 294 0
298 -29 -22 0
-298 29 0
-298 22 0
299 -298 -12 0
-299 298 0
-299 12 0
300 -824 -297 0
-300 824 0
-300 297 0
301 -771 -783 0
-301 771 0
-301 783 0
302 -301 -19 0
-302 301 0
-302 19 0
303 -825 -300 0
-303 825 0
-303 300 0
304 -38 -707 0
-304 38 0
-304 707 0
305 -304 -49 0
-305 304 0
-305 49 0
306 -826 -303 0
-306 826 0
-306 303 0
307 -750 -22 0
-307 750 0
-307 22 0
308 -307 -756 0
-308 307 0
-308 756 0
309 -827 -306 0
-309 827 0
-309 306 0
310 -44 -15 0
-310 44 0
-310 15 0
311 -310 -732 0
-311 310 0
-311 732 0
312 -828 -309 0
-312 828 0
-312 309 0
313 -762 -2 0
-313 762 0
-313 2 0
314 -313 -41 0
-314 313 0
-314 41 0
315 -829 -312 0
-315 829 0
-315 312 0
316 -764 -726 0
-316 764 0
-316 726 0
317 -316 -700 0
-317 316 0
-317 700 0
318 -830 -315 0
-318 830 0
-318 315 0
319 -44 -33 0
-319 44 0
-319 33 0
320 -319 -28 0
-320 319 0
-320 28 0
321 -831 -318 0
-321 831 0
-321 318 0
322 -822 -10 0
-322 822 0
-322 10 0
323 -322 -33 0
-323 322 0
-323 33 0
324 -832 -321 0
-324 832 0
-324 321 0
325 -50 -13 0
-325 50 0
-325 13 0
326 -325 -742 0
-326 325 0
-326 742 0
327 -833 -324 0
-327 833 0
-327 324 0
328 -730 -23 0
-328 730 0
-328 23 0
329 -328 -6 0
-329 328 0
-329 6 0
330 -834 -327 0
-330 834 0
-330 327 0
331 -13 -704 0
-331 13 0
-331 704 0
332 -331 -45 0
-332 331 0
-332 45 0
333 -835 -330 0
-333 835 0
-333 330 0
334 -37 -15 0
-334 37 0
-334 15 0
335 -334 -30 0
-335 334 0
-335 30 0
336 -836 -333 0
-336 836 0
-336 333 0
337 -26 -716 0
-337 26 0
-337 716 0
338 -337 -718 0
-338 337 0
-338 718 0
339 -837 -336 0
-339 837 0
-339 336 0
340 -42 -747 0
-340 42 0
-340 747 0
341 -340 -720 0
-341 340 0
-341 720 0
342 -838 -339 0
-342 838 0
-342 339 0
343 -735 -738 0
-343 735 0
-343 738 0
344 -343 -3 0
-344 343 0
-344 3 0
345 -839 -342 0
-345 839 0
-345 342 0
346 -706 -3 0
-346 706 0
-346 3 0
347 -346 -30 0
-347 346 0
-347 30 0
348 -840 -345 0
-348 840 0
-348 345 0
349 -34 -22 0
-349 34 0
-349 22 0
350 -349 -711 0
-350 349 0
-350 711 0
351 -841 -348 0
-351 841 0
-351 348 0
352 -732 -706 0
-352 732 0
-352 706 0
353 -352 -726 0
-353 352 0
-353 726 0
354 -842 -351 0
-354 842 0
-354 351 0
355 -843 -704 0
-355 843 0
-355 704 0
356 -355 -786 0
-356 355 0
-356 786 0
357 -844 -354 0
-357 844 0
-357 354 0
358 -822 -3 0
-358 822 0
-358 3 0
359 -358 -710 0
-359 358 0
-359 710 0
360 -845 -357 0
-360 845 0
-360 357 0
361 -822 -768 0
-361 822 0
-361 768 0
362 -361 -24 0
-362 361 0
-362 24 0
363 -846 -360 0
-363 846 0
-363 360 0
364 -29 -704 0
-364 29 0
-364 704 0
365 -364 -48 0
-365 364 0
-365 48 0
366 -847 -363 0
-366 847 0
-366 363 0
367 -720 -724 0
-367 720 0
-367 724 0
368 -367 -5 0
-368 367 0
-368 5 0
369 -848 -366 0
-369 848 0
-369 366 0
370 -39 -738 0
-370 39 0
-370 738 0
371 -370 -752 0
-371 370 0
-371 752 0
372 -849 -369 0
-372 849 0
-372 369 0
373 -771 -26 0
-373 771 0
-373 26 0
374 -373 -722 0
-374 373 0
-374 722 0
375 -850 -372 0
-375 850 0
-375 372 0
376 -37 -707 0
-376 37 0
-376 707 0
377 -376 -711 0
-377 376 0
-377 711 0
378 -851 -375 0
-378 851 0
-378 375 0
379 -711 -852 0
-379 711 0
-379 852 0
380 -379 -8 0
-380 379 0
-380 8 0
381 -853 -378 0
-381 853 0
-381 378 0
382 -742 -10 0
-382 742 0
-382 10 0
383 -382 -24 0
-383 382 0
-383 24 0
384 -854 -381 0
-384 854 0
-384 381 0
385 -17 -855 0
-385 17 0
-385 855 0
386 -385 -750 0
-386 385 0
-386 750 0
387 -856 -384 0
-387 856 0
-387 384 0
388 -737 -34 0
-388 737 0
-388 34 0
389 -388 -718 0
-389 388 0
-389 718 0
390 -857 -387 0
-390 857 0
-390 387 0
391 -9 -747 0
-391 9 0
-391 747 0
392 -391 -760 0
-392 391 0
-392 760 0
393 -858 -390 0
-393 858 0
-393 390 0
394 -726 -16 0
-394 726 0
-394 16 0
395 -394 -786 0
-395 394 0
-395 786 0
396 -859 -393 0
-396 859 0
-396 393 0
397 -711 -15 0
-397 711 0
-397 15 0
398 -397 -723 0
-398 397 0
-398 723 0
399 -860 -396 0
-399 860 0
-399 396 0
400 -44 -861 0
-400 44 0
-400 861 0
401 -400 -760 0
-401 400 0
-401 760 0
402 -862 -399 0
-402 862 0
-402 399 0
403 -775 -22 0
-403 775 0
-403 22 0
404 -403 -9 0
-404 403 0
-404 9 0
405 -863 -402 0
-405 863 0
-405 402 0
406 -822 -762 0
-406 822 0
-406 762 0
407 -406 -33 0
-407 406 0
-407 33 0
408 -864 -405 0
-408 864 0
-408 405 0
409 -865 -707 0
-409 865 0
-409 707 0
410 -409 -28 0
-410 409 0
-410 28 0
411 -866 -408 0
-411 866 0
-411 408 0
412 -723 -762 0
-412 723 0
-412 762 0
413 -412 -757 0
-413 412 0
-413 757 0
414 -867 -411 0
-414 867 0
-414 411 0
415 -36 -4 0
-415 36 0
-415 4 0
416 -415 -19 0
-416 415 0
-416 19 0
417 -868 -414 0
-417 868 0
-417 414 0
418 -737 -738 0
-418 737 0
-418 738 0
419 -418 -869 0
-419 418 0
-419 869 0
420 -870 -417 0
-420 870 0
-420 417 0
421 -49 -15 0
-421 49 0
-421 15 0
422 -421 -48 0
-422 421 0
-422 48 0
423 -871 -420 0
-423 871 0
-423 420 0
424 -865 -855 0
-424 865 0
-424 855 0
425 -424 -747 0
-425 424 0
-425 747 0
426 -872 -423 0
-426 872 0
-426 423 0
427 -42 -737 0
-427 42 0
-427 737 0
428 -427 -718 0
-428 427 0
-428 718 0
429 -873 -426 0
-429 873 0
-429 426 0
430 -822 -729 0
-430 822 0
-430 729 0
431 -430 -30 0
-431 430 0
-431 30 0
432 -874 -429 0
-432 874 0
-432 429 0
433 -875 -737 0
-433 875 0
-433 737 0
434 -433 -21 0
-434 433 0
-434 21 0
435 -876 -432 0
-435 876 0
-435 432 0
436 -861 -714 0
-436 861 0
-436 714 0
437 -436 -786 0
-437 436 0
-437 786 0
438 -877 -435 0
-438 877 0
-438 435 0
439 -775 -4 0
-439 775 0
-439 4 0
440 -439 -718 0
-440 439 0
-440 718 0
441 -878 -438 0
-441 878 0
-441 438 0
442 -40 -35 0
-442 40 0
-442 35 0
443 -442 -757 0
-443 442 0
-443 757 0
444 -879 -441 0
-444 879 0
-444 441 0
445 -16 -706 0
-445 16 0
-445 706 0
446 -445 -43 0
-446 445 0
-446 43 0
447 -880 -444 0
-447 880 0
-447 444 0
448 -865 -34 0
-448 865 0
-448 34 0
449 -448 -49 0
-449 448 0
-449 49 0
450 -881 -447 0
-450 881 0
-450 447 0
451 -875 -37 0
-451 875 0
-451 37 0
452 -451 -882 0
-452 451 0
-452 882 0
453 -883 -450 0
-453 883 0
-453 450 0
454 -771 -1 0
-454 771 0
-454 1 0
455 -454 -21 0
-455 454 0
-455 21 0
456 -884 -453 0
-456 884 0
-456 453 0
457 -762 -13 0
-457 762 0
-457 13 0
458 -457 -45 0
-458 457 0
-458 45 0
459 -885 -456 0
-459 885 0
-459 456 0
460 -32 -16 0
-460 32 0
-460 16 0
461 -460 -24 0
-461 460 0
-461 24 0
462 -886 -459 0
-462 886 0
-462 459 0
463 -42 -706 0
-463 42 0
-463 706 0
464 -463 -757 0
-464 463 0
-464 757 0
465 -887 -462 0
-465 887 0
-465 462 0
466 -771 -775 0
-466 771 0
-466 775 0
467 -466 -9 0
-467 466 0
-467 9 0
468 -888 -465 0
-468 888 0
-468 465 0
469 -742 -8 0
-469 742 0
-469 8 0
470 -469 -18 0
-470 469 0
-470 18 0
471 -889 -468 0
-471 889 0
-471 468 0
472 -49 -747 0
-472 49 0
-472 747 0
473 -472 -9 0
-473 472 0
-473 9 0
474 -890 -471 0
-474 890 0
-474 471 0
475 -27 -1 0
-475 27 0
-475 1 0
476 -475 -24 0
-476 475 0
-476 24 0
477 -891 -474 0
-477 891 0
-477 474 0
478 -726 -800 0
-478 726 0
-478 800 0
479 -478 -9 0
-479 478 0
-479 9 0
480 -892 -477 0
-480 892 0
-480 477 0
481 -720 -706 0
-481 720 0
-481 706 0
482 -481 -760 0
-482 481 0
-482 760 0
483 -893 -480 0
-483 893 0
-483 480 0
484 -39 -36 0
-484 39 0
-484 36 0
485 -484 -718 0
-485 484 0
-485 718 0
486 -894 -483 0
-486 894 0
-486 483 0
487 -714 -706 0
-487 714 0
-487 706 0
488 -487 -747 0
-488 487 0
-488 747 0
489 -895 -486 0
-489 895 0
-489 486 0
490 -822 -843 0
-490 822 0
-490 843 0
491 -490 -19 0
-491 490 0
-491 19 0
492 -896 -489 0
-492 896 0
-492 489 0
493 -717 -20 0
-493 717 0
-493 20 0
494 -493 -3 0
-494 493 0
-494 3 0
495 -897 -492 0
-495 897 0
-495 492 0
496 -869 -716 0
-496 869 0
-496 716 0
497 -496 -712 0
-497 496 0
-497 712 0
498 -898 -495 0
-498 898 0
-498 495 0
499 -47 -728 0
-499 47 0
-499 728 0
500 -499 -23 0
-500 499 0
-500 23 0
501 -899 -498 0
-501 899 0
-501 498 0
502 -29 -3 0
-502 29 0
-502 3 0
503 -502 -12 0
-503 502 0
-503 12 0
504 -900 -501 0
-504 900 0
-504 501 0
505 -20 -710 0
-505 20 0
-505 710 0
506 -505 -718 0
-506 505 0
-506 718 0
507 -901 -504 0
-507 901 0
-507 504 0
508 -726 -20 0
-508 726 0
-508 20 0
509 -508 -6 0
-509 508 0
-509 6 0
510 -902 -507 0
-510 902 0
-510 507 0
511 -738 -800 0
-511 738 0
-511 800 0
512 -511 -5 0
-512 511 0
-512 5 0
513 -903 -510 0
-513 903 0
-513 510 0
514 -754 -12 0
-514 754 0
-514 12 0
515 -514 -718 0
-515 514 0
-515 718 0
516 -904 -513 0
-516 904 0
-516 513 0
517 -752 -754 0
-517 752 0
-517 754 0
518 -517 -48 0
-518 517 0
-518 48 0
519 -905 -516 0
-519 905 0
-519 516 0
520 -764 -717 0
-520 764 0
-520 717 0
521 -520 -37 0
-521 520 0
-521 37 0
522 -906 -519 0
-522 906 0
-522 519 0
523 -44 -711 0
-523 44 0
-523 711 0
524 -523 -48 0
-524 523 0
-524 48 0
525 -907 -522 0
-525 907 0
-525 522 0
526 -810 -738 0
-526 810 0
-526 738 0
527 -526 -855 0
-527 526 0
-527 855 0
528 -908 -525 0
-528 908 0
-528 525 0
529 -822 -22 0
-529 822 0
-529 22 0
530 -529 -716 0
-530 529 0
-530 716 0
531 -909 -528 0
-531 909 0
-531 528 0
532 -39 -22 0
-532 39 0
-532 22 0
533 -532 -24 0
-533 532 0
-533 24 0
534 -910 -531 0
-534 910 0
-534 531 0
535 -45 -747 0
-535 45 0
-535 747 0
536 -535 -760 0
-536 535 0
-536 760 0
537 -911 -534 0
-537 911 0
-537 534 0
538 -783 -1 0
-538 783 0
-538 1 0
539 -538 -760 0
-539 538 0
-539 760 0
540 -912 -537 0
-540 912 0
-540 537 0
541 -50 -724 0
-541 50 0
-541 724 0
542 -541 -768 0
-542 541 0
-542 768 0
543 -913 -540 0
-543 913 0
-543 540 0
544 -732 -711 0
-544 732 0
-544 711 0
545 -544 -712 0
-545 544 0
-545 712 0
546 -914 -543 0
-546 914 0
-546 543 0
547 -754 -800 0
-547 754 0
-547 800 0
548 -547 -25 0
-548 547 0
-548 25 0
549 -915 -546 0
-549 915 0
-549 546 0
550 -875 -27 0
-550 875 0
-550 27 0
551 -550 -43 0
-551 550 0
-551 43 0
552 -916 -549 0
-552 916 0
-552 549 0
553 -430 -24 0
-553 430 0
-553 24 0
554 -917 -552 0
-554 917 0
-554 552 0
555 -13 -7 0
-555 13 0
-555 7 0
556 -555 -726 0
-556 555 0
-556 726 0
557 -918 -554 0
-557 918 0
-557 554 0
558 -37 -737 0
-558 37 0
-558 737 0
559 -558 -9 0
-559 558 0
-559 9 0
560 -919 -557 0
-560 919 0
-560 557 0
561 -737 -10 0
-561 737 0
-561 10 0
562 -561 -6 0
-562 561 0
-562 6 0
563 -920 -560 0
-563 920 0
-563 560 0
564 -38 -33 0
-564 38 0
-564 33 0
565 -564 -855 0
-565 564 0
-565 855 0
566 -921 -563 0
-566 921 0
-566 563 0
567 -710 -12 0
-567 710 0
-567 12 0
568 -567 -760 0
-568 567 0
-568 760 0
569 -922 -566 0
-569 922 0
-569 566 0
570 -750 -33 0
-570 750 0
-570 33 0
571 -570 -9 0
-571 570 0
-571 9 0
572 -923 -569 0
-572 923 0
-572 569 0
573 -711 -855 0
-573 711 0
-573 855 0
574 -573 -12 0
-574 573 0
-574 12 0
575 -924 -572 0
-575 924 0
-575 572 0
576 -50 -729 0
-576 50 0
-576 729 0
577 -576 -714 0
-577 576 0
-577 714 0
578 -925 -575 0
-578 925 0
-578 575 0
579 -750 -717 0
-579 750 0
-579 717 0
580 -579 -699 0
-580 579 0
-580 699 0
581 -926 -578 0
-581 926 0
-581 578 0
582 -44 -704 0
-582 44 0
-582 704 0
583 -582 -9 0
-583 582 0
-583 9 0
584 -927 -581 0
-584 927 0
-584 581 0
585 -39 -717 0
-585 39 0
-585 717 0
586 -585 -49 0
-586 585 0
-586 49 0
587 -928 -584 0
-587 928 0
-587 584 0
588 -756 -861 0
-588 756 0
-588 861 0
589 -588 -45 0
-589 588 0
-589 45 0
590 -929 -587 0
-590 929 0
-590 587 0
591 -750 -699 0
-591 750 0
-591 699 0
592 -591 -43 0
-592 591 0
-592 43 0
593 -930 -590 0
-593 930 0
-593 590 0
594 -29 -783 0
-594 29 0
-594 783 0
595 -594 -843 0
-595 594 0
-595 843 0
596 -931 -593 0
-596 931 0
-596 593 0
597 -810 -14 0
-597 810 0
-597 14 0
598 -597 -3 0
-598 597 0
-598 3 0
599 -932 -596 0
-599 932 0
-599 596 0
600 -720 -17 0
-600 720 0
-600 17 0
601 -600 -45 0
-601 600 0
-601 45 0
602 -933 -599 0
-602 933 0
-602 599 0
603 -712 -13 0
-603 712 0
-603 13 0
604 -603 -43 0
-604 603 0
-604 43 0
605 -934 -602 0
-605 934 0
-605 602 0
606 -716 -4 0
-606 716 0
-606 4 0
607 -606 -720 0
-607 606 0
-607 720 0
608 -935 -605 0
-608 935 0
-608 605 0
609 -33 -17 0
-609 33 0
-609 17 0
610 -609 -48 0
-610 609 0
-610 48 0
611 -936 -608 0
-611 936 0
-611 608 0
612 -44 -728 0
-612 44 0
-612 728 0
613 -612 -843 0
-613 612 0
-613 843 0
614 -937 -611 0
-614 937 0
-614 611 0
615 -190 -6 0
-615 190 0
-615 6 0
616 -938 -614 0
-616 938 0
-616 614 0
617 -710 -706 0
-617 710 0
-617 706 0
618 -617 -9 0
-618 617 0
-618 9 0
619 -939 -616 0
-619 939 0
-619 616 0
620 -50 -36 0
-620 50 0
-620 36 0
621 -620 -9 0
-621 620 0
-621 9 0
622 -940 -619 0
-622 940 0
-622 619 0
623 -29 -8 0
-623 29 0
-623 8 0
624 -623 -700 0
-624 623 0
-624 700 0
625 -941 -622 0
-625 941 0
-625 622 0
626 -46 -716 0
-626 46 0
-626 716 0
627 -626 -25 0
-627 626 0
-627 25 0
628 -942 -625 0
-628 942 0
-628 625 0
629 -34 -12 0
-629 34 0
-629 12 0
630 -629 -6 0
-630 629 0
-630 6 0
631 -943 -628 0
-631 943 0
-631 628 0
632 -737 -7 0
-632 737 0
-632 7 0
633 -632 -25 0
-633 632 0
-633 25 0
634 -944 -631 0
-634 944 0
-634 631 0
635 -722 -711 0
-635 722 0
-635 711 0
636 -635 -18 0
-636 635 0
-636 18 0
637 -945 -634 0
-637 945 0
-637 634 0
638 -752 -20 0
-638 752 0
-638 20 0
639 -638 -768 0
-639 638 0
-639 768 0
640 -946 -637 0
-640 946 0
-640 637 0
641 -31 -738 0
-641 31 0
-641 738 0
642 -641 -760 0
-642 641 0
-642 760 0
643 -947 -640 0
-643 947 0
-643 640 0
644 -742 -9 0
-644 742 0
-644 9 0
645 -644 -699 0
-645 644 0
-645 699 0
646 -948 -643 0
-646 948 0
-646 643 0
647 -732 -20 0
-647 732 0
-647 20 0
648 -647 -710 0
-648 647 0
-648 710 0
649 -949 -646 0
-649 949 0
-649 646 0
650 -875 -2 0
-650 875 0
-650 2 0
651 -650 -25 0
-651 650 0
-651 25 0
652 -950 -649 0
-652 950 0
-652 649 0
653 -647 -822 0
-653 647 0
-653 822 0
654 -951 -652 0
-654 951 0
-654 652 0
655 -31 -754 0
-655 31 0
-655 754 0
656 -655 -718 0
-656 655 0
-656 718 0
657 -952 -654 0
-657 952 0
-657 654 0
658 -737 -29 0
-658 737 0
-658 29 0
659 -658 -40 0
-659 658 0
-659 40 0
660 -953 -657 0
-660 953 0
-660 657 0
661 -49 -771 0
-661 49 0
-661 771 0
662 -661 -718 0
-662 661 0
-662 718 0
663 -954 -660 0
-663 954 0
-663 660 0
664 -722 -717 0
-664 722 0
-664 717 0
665 -664 -14 0
-665 664 0
-665 14 0
666 -955 -663 0
-666 955 0
-666 663 0
667 -737 -21 0
-667 737 0
-667 21 0
668 -667 -39 0
-668 667 0
-668 39 0
669 -956 -666 0
-669 956 0
-669 666 0
670 -875 -771 0
-670 875 0
-670 771 0
671 -670 -786 0
-671 670 0
-671 786 0
672 -957 -669 0
-672 957 0
-672 669 0
673 -46 -26 0
-673 46 0
-673 26 0
674 -673 -8 0
-674 673 0
-674 8 0
675 -958 -672 0
-675 958 0
-675 672 0
676 -728 -9 0
-676 728 0
-676 9 0
677 -676 -712 0
-677 676 0
-677 712 0
678 -959 -675 0
-678 959 0
-678 675 0
679 -764 -800 0
-679 764 0
-679 800 0
680 -679 -716 0
-680 679 0
-680 716 0
681 -960 -678 0
-681 960 0
-681 678 0
682 -722 -13 0
-682 722 0
-682 13 0
683 -682 -750 0
-683 682 0
-683 750 0
684 -961 -681 0
-684 961 0
-684 681 0
685 -726 -17 0
-685 726 0
-685 17 0
686 -685 -9 0
-686 685 0
-686 9 0
687 -962 -684 0
-687 962 0
-687 684 0
688 -62 -756 0
-688 62 0
-688 756 0
689 -963 -687 0
-689 963 0
-689 687 0
690 -36 -704 0
-690 36 0
-690 704 0
691 -690 -23 0
-691 690 0
-691 23 0
692 -964 -689 0
-692 964 0
-692 689 0
693 -750 -15 0
-693 750 0
-693 15 0
694 -693 -760 0
-694 693 0
-694 760 0
695 -965 -692 0
-695 965 0
-695 692 0
696 -750 -12 0
-696 750 0
-696 12 0
697 -696 -730 0
-697 696 0
-697 730 0
698 -966 -695 0
-698 966 0
-698 695 0
-699 -5 0
699 5 0
-700 -6 0
700 6 0
-701 -54 0
701 54 0
-702 -52 0
702 52 0
-703 -57 0
703 57 0
-704 -10 0
704 10 0
-705 -60 0
705 60 0
-706 -13 0
706 13 0
-707 -1 0
707 1 0
-708 -63 0
708 63 0
-709 -66 0
709 66 0
-710 -18 0
710 18 0
-711 -17 0
711 17 0
-712 -19 0
712 19 0
-713 -69 0
713 69 0
-714 -14 0
714 14 0
-715 -72 0
715 72 0
-716 -23 0
716 23 0
-717 -22 0
717 22 0
-718 -24 0
718 24 0
-719 -75 0
719 75 0
-720 -25 0
720 25 0
-721 -78 0
721 78 0
-722 -27 0
722 27 0
-723 -26 0
723 26 0
-724 -8 0
724 8 0
-725 -81 0
725 81 0
-726 -28 0
726 28 0
-727 -84 0
727 84 0
-728 -29 0
728 29 0
-729 -16 0
729 16 0
-730 -30 0
730 30 0
-731 -87 0
731 87 0
-732 -31 0
732 31 0
-733 -90 0
733 90 0
-734 -93 0
734 93 0
-735 -34 0
735 34 0
-736 -96 0
736 96 0
-737 -36 0
737 36 0
-738 -20 0
738 20 0
-739 -99 0
739 99 0
-740 -102 0
740 102 0
-741 -105 0
741 105 0
-742 -38 0
742 38 0
-743 -108 0
743 108 0
-744 -111 0
744 111 0
-745 -113 0
745 113 0
-746 -116 0
746 116 0
-747 -4 0
747 4 0
-748 -119 0
748 119 0
-749 -122 0
749 122 0
-750 -40 0
750 40 0
-751 -125 0
751 125 0
-752 -41 0
752 41 0
-753 -128 0
753 128 0
-754 -21 0
754 21 0
-755 -131 0
755 131 0
-756 -42 0
756 42 0
-757 -12 0
757 12 0
-758 -134 0
758 134 0
-759 -137 0
759 137 0
-760 -43 0
760 43 0
-761 -140 0
761 140 0
-762 -15 0
762 15 0
-763 -143 0
763 143 0
-764 -35 0
764 35 0
-765 -146 0
765 146 0
-766 -149 0
766 149 0
-767 -152 0
767 152 0
-768 -45 0
768 45 0
-769 -155 0
769 155 0
-770 -158 0
770 158 0
-771 -44 0
771 44 0
-772 -161 0
772 161 0
-773 -164 0
773 164 0
-774 -167 0
774 167 0
-775 -37 0
775 37 0
-776 -170 0
776 170 0
-777 -173 0
777 173 0
-778 -176 0
778 176 0
-779 -179 0
779 179 0
-780 -182 0
780 182 0
-781 -185 0
781 185 0
-782 -188 0
782 188 0
-783 -2 0
783 2 0
-784 -191 0
784 191 0
-785 -194 0
785 194 0
-786 -9 0
786 9 0
-787 -197 0
787 197 0
-788 -200 0
788 200 0
-789 -203 0
789 203 0
-790 -206 0
790 206 0
-791 -209 0
791 209 0
-792 -212 0
792 212 0
-793 -215 0
793 215 0
-794 -218 0
794 218 0
-795 -221 0
795 221 0
-796 -224 0
796 224 0
-797 -227 0
797 227 0
-798 -230 0
798 230 0
-799 -233 0
799 233 0
-800 -3 0
800 3 0
-801 -236 0
801 236 0
-802 -239 0
802 239 0
-803 -242 0
803 242 0
-804 -245 0
804 245 0
-805 -248 0
805 248 0
-806 -251 0
806 251 0
-807 -254 0
807 254 0
-808 -257 0
808 257 0
-809 -260 0
809 260 0
-810 -32 0
810 32 0
-811 -263 0
811 263 0
-812 -266 0
812 266 0
-813 -269 0
813 269 0
-814 -272 0
814 272 0
-815 -275 0
815 275 0
-816 -278 0
816 278 0
-817 -281 0
817 281 0
-818 -284 0
818 284 0
-819 -287 0
819 287 0
-820 -290 0
820 290 0
-821 -293 0
821 293 0
-822 -46 0
822 46 0
-823 -296 0
823 296 0
-824 -299 0
824 299 0
-825 -302 0
825 302 0
-826 -305 0
826 305 0
-827 -308 0
827 308 0
-828 -311 0
828 311 0
-829 -314 0
829 314 0
-830 -317 0
830 317 0
-831 -320 0
831 320 0
-832 -323 0
832 323 0
-833 -326 0
833 326 0
-834 -329 0
834 329 0
-835 -332 0
835 332 0
-836 -335 0
836 335 0
-837 -338 0
837 338 0
-838 -341 0
838 341 0
-839 -344 0
839 344 0
-840 -347 0
840 347 0
-841 -350 0
841 350 0
-842 -353 0
842 353 0
-843 -39 0
843 39 0
-844 -356 0
844 356 0
-845 -359 0
845 359 0
-846 -362 0
846 362 0
-847 -365 0
847 365 0
-848 -368 0
848 368 0
-849 -371 0
849 371 0
-850 -374 0
850 374 0
-851 -377 0
851 377 0
-852 -11 0
852 11 0
-853 -380 0
853 380 0
-854 -383 0
854 383 0
-855 -7 0
855 7 0
-856 -386 0
856 386 0
-857 -389 0
857 389 0
-858 -392 0
858 392 0
-859 -395 0
859 395 0
-860 -398 0
860 398 0
-861 -33 0
861 33 0
-862 -401 0
862 401 0
-863 -404 0
863 404 0
-864 -407 0
864 407 0
-865 -50 0
865 50 0
-866 -410 0
866 410 0
-867 -413 0
867 413 0
-868 -416 0
868 416 0
-869 -49 0
869 49 0
-870 -419 0
870 419 0
-871 -422 0
871 422 0
-872 -425 0
872 425 0
-873 -428 0
873 428 0
-874 -431 0
874 431 0
-875 -47 0
875 47 0
-876 -434 0
876 434 0
-877 -437 0
877 437 0
-878 -440 0
878 440 0
-879 -443 0
879 443 0
-880 -446 0
880 446 0
-881 -449 0
881 449 0
-882 -48 0
882 48 0
-883 -452 0
883 452 0
-884 -455 0
884 455 0
-885 -458 0
885 458 0
-886 -461 0
886 461 0
-887 -464 0
887 464 0
-888 -467 0
888 467 0
-889 -470 0
889 470 0
-890 -473 0
890 473 0
-891 -476 0
891 476 0
-892 -479 0
892 479 0
-893 -482 0
893 482 0
-894 -485 0
894 485 0
-895 -488 0
895 488 0
-896 -491 0
896 491 0
-897 -494 0
897 494 0
-898 -497 0
898 497 0
-899 -500 0
899 500 0
-900 -503 0
900 503 0
-901 -506 0
901 506 0
-902 -509 0
902 509 0
-903 -512 0
903 512 0
-904 -515 0
904 515 0
-905 -518 0
905 518 0
-906 -521 0
906 521 0
-907 -524 0
907 524 0
-908 -527 0
908 527 0
-909 -530 0
909 530 0
-910 -533 0
910 533 0
-911 -536 0
911 536 0
-912 -539 0
912 539 0
-913 -542 0
913 542 0
-914 -545 0
914 545 0
-915 -548 0
915 548 0
-916 -551 0
916 551 0
-917 -553 0
917 553 0
-918 -556 0
918 556 0
-919 -559 0
919 559 0
-920 -562 0
920 562 0
-921 -565 0
921 565 0
-922 -568 0
922 568 0
-923 -571 0
923 571 0
-924 -574 0
924 574 0
-925 -577 0
925 577 0
-926 -580 0
926 580 0
-927 -583 0
927 583 0
-928 -586 0
928 586 0
-929 -589 0
929 589 0
-930 -592 0
930 592 0
-931 -595 0
931 595 0
-932 -598 0
932 598 0
-933 -601 0
933 601 0
-934 -604 0
934 604 0
-935 -607 0
935 607 0
-936 -610 0
936 610 0
-937 -613 0
937 613 0
-938 -615 0
938 615 0
-939 -618 0
939 618 0
-940 -621 0
940 621 0
-941 -624 0
941 624 0
-942 -627 0
942 627 0
-943 -630 0
943 630 0
-944 -633 0
944 633 0
-945 -636 0
945 636 0
-946 -639 0
946 639 0
-947 -642 0
947 642 0
-948 -645 0
948 645 0
-949 -648 0
949 648 0
-950 -651 0
950 651 0
-951 -653 0
951 653 0
-952 -656 0
952 656 0
-953 -659 0
953 659 0
-954 -662 0
954 662 0
-955 -665 0
955 665 0
-956 -668 0
956 668 0
-957 -671 0
957 671 0
-958 -674 0
958 674 0
-959 -677 0
959 677 0
-960 -680 0
960 680 0
-961 -683 0
961 683 0
-962 -686 0
962 686 0
-963 -688 0
963 688 0
-964 -691 0
964 691 0
-965 -694 0
965 694 0
-966 -697 0
966 697 0
698 0
